15 3 
1503	1503	1503	
484	16	24	
67	413	694	
765	804	1513	
237	9	9	
342	210	307	
554	903	1123	
710	189	344	
436	416	722	
464	142	171	
883	68	70	
952	539	869	
356	546	736	
971	559	838	
31	317	438	
975	884	1162	
